(set-info :smt-lib-version 2.6)
(set-logic QF_ALIA)
(set-info :notes "Adapted for Array Sum evaluation.
Base file: qlock.induction.17.smt2")
(set-info :source |
Unbounded version of the queue lock algorithm.
|)
(set-info :category "industrial")
(declare-fun x_0 () (Array Int Int))
(declare-fun x_1 () Int)
(declare-fun x_2 () Int)
(declare-fun x_3 () (Array Int Int))
(declare-fun x_4 () (Array Int Int))
(declare-fun x_5 () (Array Int Int))
(declare-fun x_6 () (Array Int Int))
(declare-fun x_7 () (Array Int Int))
(declare-fun x_8 () (Array Int Int))
(declare-fun x_9 () (Array Int Int))
(declare-fun x_10 () (Array Int Int))
(declare-fun x_11 () (Array Int Int))
(declare-fun x_12 () (Array Int Int))
(declare-fun x_13 () (Array Int Int))
(declare-fun x_14 () (Array Int Int))
(declare-fun x_15 () (Array Int Int))
(declare-fun x_16 () (Array Int Int))
(declare-fun x_17 () (Array Int Int))
(declare-fun x_18 () (Array Int Int))
(declare-fun x_19 () (Array Int Int))
(declare-fun x_20 () Int)
(declare-fun x_21 () Int)
(declare-fun x_22 () (Array Int Int))
(declare-fun x_23 () Int)
(declare-fun x_24 () Bool)
(declare-fun x_25 () Bool)
(declare-fun x_26 () Int)
(declare-fun x_27 () Int)
(declare-fun x_28 () Int)
(declare-fun x_29 () Int)
(declare-fun x_30 () Int)
(declare-fun x_31 () Int)
(declare-fun x_32 () Int)
(declare-fun x_33 () Int)
(declare-fun x_34 () Int)
(declare-fun x_35 () Int)
(declare-fun x_36 () Int)
(declare-fun x_37 () Int)
(declare-fun x_38 () (Array Int Int))
(declare-fun x_39 () Int)
(declare-fun x_40 () Bool)
(declare-fun x_41 () Int)
(declare-fun x_42 () Int)
(declare-fun x_43 () Int)
(declare-fun x_44 () Int)
(declare-fun x_45 () Int)
(declare-fun x_46 () Int)
(declare-fun x_47 () Int)
(declare-fun x_48 () Int)
(declare-fun x_49 () Int)
(declare-fun x_50 () Int)
(declare-fun x_51 () (Array Int Int))
(declare-fun x_52 () Int)
(declare-fun x_53 () Bool)
(declare-fun x_54 () Int)
(declare-fun x_55 () Int)
(declare-fun x_56 () Int)
(declare-fun x_57 () Int)
(declare-fun x_58 () Int)
(declare-fun x_59 () Int)
(declare-fun x_60 () Int)
(declare-fun x_61 () Int)
(declare-fun x_62 () Int)
(declare-fun x_63 () Int)
(declare-fun x_64 () (Array Int Int))
(declare-fun x_65 () Int)
(declare-fun x_66 () Bool)
(declare-fun x_67 () Int)
(declare-fun x_68 () Int)
(declare-fun x_69 () Int)
(declare-fun x_70 () Int)
(declare-fun x_71 () Int)
(declare-fun x_72 () Int)
(declare-fun x_73 () Int)
(declare-fun x_74 () Int)
(declare-fun x_75 () Int)
(declare-fun x_76 () Int)
(declare-fun x_77 () (Array Int Int))
(declare-fun x_78 () Int)
(declare-fun x_79 () Bool)
(declare-fun x_80 () Int)
(declare-fun x_81 () Int)
(declare-fun x_82 () Int)
(declare-fun x_83 () Int)
(declare-fun x_84 () Int)
(declare-fun x_85 () Int)
(declare-fun x_86 () Int)
(declare-fun x_87 () Int)
(declare-fun x_88 () Int)
(declare-fun x_89 () Int)
(declare-fun x_90 () (Array Int Int))
(declare-fun x_91 () Int)
(declare-fun x_92 () Bool)
(declare-fun x_93 () Int)
(declare-fun x_94 () Int)
(declare-fun x_95 () Int)
(declare-fun x_96 () Int)
(declare-fun x_97 () Int)
(declare-fun x_98 () Int)
(declare-fun x_99 () Int)
(declare-fun x_100 () Int)
(declare-fun x_101 () Int)
(declare-fun x_102 () Int)
(declare-fun x_103 () (Array Int Int))
(declare-fun x_104 () Int)
(declare-fun x_105 () Bool)
(declare-fun x_106 () Int)
(declare-fun x_107 () Int)
(declare-fun x_108 () Int)
(declare-fun x_109 () Int)
(declare-fun x_110 () Int)
(declare-fun x_111 () Int)
(declare-fun x_112 () Int)
(declare-fun x_113 () Int)
(declare-fun x_114 () Int)
(declare-fun x_115 () Int)
(declare-fun x_116 () (Array Int Int))
(declare-fun x_117 () Int)
(declare-fun x_118 () Bool)
(declare-fun x_119 () Int)
(declare-fun x_120 () Int)
(declare-fun x_121 () Int)
(declare-fun x_122 () Int)
(declare-fun x_123 () Int)
(declare-fun x_124 () Int)
(declare-fun x_125 () Int)
(declare-fun x_126 () Int)
(declare-fun x_127 () Int)
(declare-fun x_128 () Int)
(declare-fun x_129 () (Array Int Int))
(declare-fun x_130 () Int)
(declare-fun x_131 () Bool)
(declare-fun x_132 () Int)
(declare-fun x_133 () Int)
(declare-fun x_134 () Int)
(declare-fun x_135 () Int)
(declare-fun x_136 () Int)
(declare-fun x_137 () Int)
(declare-fun x_138 () Int)
(declare-fun x_139 () Int)
(declare-fun x_140 () Int)
(declare-fun x_141 () Int)
(declare-fun x_142 () (Array Int Int))
(declare-fun x_143 () Int)
(declare-fun x_144 () Bool)
(declare-fun x_145 () Int)
(declare-fun x_146 () Int)
(declare-fun x_147 () Int)
(declare-fun x_148 () Int)
(declare-fun x_149 () Int)
(declare-fun x_150 () Int)
(declare-fun x_151 () Int)
(declare-fun x_152 () Int)
(declare-fun x_153 () Int)
(declare-fun x_154 () Int)
(declare-fun x_155 () (Array Int Int))
(declare-fun x_156 () Int)
(declare-fun x_157 () Bool)
(declare-fun x_158 () Int)
(declare-fun x_159 () Int)
(declare-fun x_160 () Int)
(declare-fun x_161 () Int)
(declare-fun x_162 () Int)
(declare-fun x_163 () Int)
(declare-fun x_164 () Int)
(declare-fun x_165 () Int)
(declare-fun x_166 () Int)
(declare-fun x_167 () Int)
(declare-fun x_168 () (Array Int Int))
(declare-fun x_169 () Int)
(declare-fun x_170 () Bool)
(declare-fun x_171 () Int)
(declare-fun x_172 () Int)
(declare-fun x_173 () Int)
(declare-fun x_174 () Int)
(declare-fun x_175 () Int)
(declare-fun x_176 () Int)
(declare-fun x_177 () Int)
(declare-fun x_178 () Int)
(declare-fun x_179 () Int)
(declare-fun x_180 () Int)
(declare-fun x_181 () (Array Int Int))
(declare-fun x_182 () Int)
(declare-fun x_183 () Bool)
(declare-fun x_184 () Int)
(declare-fun x_185 () Int)
(declare-fun x_186 () Int)
(declare-fun x_187 () Int)
(declare-fun x_188 () Int)
(declare-fun x_189 () Int)
(declare-fun x_190 () Int)
(declare-fun x_191 () Int)
(declare-fun x_192 () Int)
(declare-fun x_193 () Int)
(declare-fun x_194 () (Array Int Int))
(declare-fun x_195 () Int)
(declare-fun x_196 () Bool)
(declare-fun x_197 () Int)
(declare-fun x_198 () Int)
(declare-fun x_199 () Int)
(declare-fun x_200 () Int)
(declare-fun x_201 () Int)
(declare-fun x_202 () Int)
(declare-fun x_203 () Int)
(declare-fun x_204 () Int)
(declare-fun x_205 () Int)
(declare-fun x_206 () Int)
(declare-fun x_207 () (Array Int Int))
(declare-fun x_208 () Int)
(declare-fun x_209 () Bool)
(declare-fun x_210 () Int)
(declare-fun x_211 () Int)
(declare-fun x_212 () Int)
(declare-fun x_213 () Int)
(declare-fun x_214 () Int)
(declare-fun x_215 () Int)
(declare-fun x_216 () Int)
(declare-fun x_217 () Int)
(declare-fun x_218 () Int)
(declare-fun x_219 () Int)
(declare-fun x_220 () (Array Int Int))
(declare-fun x_221 () Int)
(declare-fun x_222 () Bool)
(declare-fun x_223 () Int)
(declare-fun x_224 () Int)
(declare-fun x_225 () Int)
(declare-fun x_226 () Int)
(declare-fun x_227 () Int)
(declare-fun x_228 () Int)
(declare-fun x_229 () Int)
(declare-fun x_230 () Int)
(declare-fun x_231 () Int)
(declare-fun x_232 () Int)
(declare-fun x_233 () (Array Int Int))
(declare-fun x_234 () Int)
(declare-fun x_235 () Bool)
(declare-fun x_236 () Int)
(declare-fun x_237 () Int)
(declare-fun x_238 () Int)
(declare-fun x_239 () Int)
(declare-fun x_240 () Int)
(declare-fun x_241 () (Array Int Int))
(declare-fun x_242 () Int)
(declare-fun x_243 () Int)
(declare-fun x_244 () Int)
(declare-fun x_245 () Int)
(declare-fun x_246 () Int)
(declare-fun x_247 () Int)
(declare-fun x_248 () Int)
(declare-fun x_249 () Int)
(declare-fun x_250 () Int)
(declare-fun x_251 () Int)
(declare-fun x_252 () Int)
(declare-fun x_253 () Int)
(declare-fun x_254 () Int)
(declare-fun x_255 () Int)
(declare-fun x_256 () Int)
(declare-fun x_257 () Int)
(declare-fun x_258 () Int)
(declare-fun x_259 () Int)
(declare-fun x_260 () Int)
(declare-fun x_261 () Int)
(declare-fun x_262 () Int)
(declare-fun x_263 () Int)
(declare-fun x_264 () Int)
(declare-fun x_265 () Int)
(declare-fun x_266 () Int)
(declare-fun x_267 () Int)
(declare-fun x_268 () Int)
(declare-fun x_269 () Int)
(declare-fun x_270 () Int)
(declare-fun x_271 () Int)
(declare-fun x_272 () Int)
(declare-fun x_273 () Int)
(declare-fun x_274 () Int)
(declare-fun x_275 () Int)
(declare-fun x_276 () Int)
(declare-fun x_277 () Int)
(declare-fun x_278 () Int)
(declare-fun x_279 () Int)
(declare-fun x_280 () Int)
(declare-fun x_281 () Int)
(declare-fun x_282 () Int)
(declare-fun x_283 () Int)
(declare-fun x_284 () Int)
(declare-fun x_285 () Int)
(declare-fun x_286 () Int)
(declare-fun x_287 () Int)
(declare-fun x_288 () Int)
(declare-fun x_289 () Int)
(declare-fun x_290 () Int)
(declare-fun x_291 () Int)
(declare-fun x_292 () Int)
(declare-fun x_293 () Int)
(declare-fun x_294 () Int)
(declare-fun x_295 () Int)
(declare-fun x_296 () Int)
(declare-fun x_297 () Int)
(declare-fun x_298 () Int)
(declare-fun x_299 () Int)
(declare-fun x_300 () Int)
(declare-fun x_301 () Int)
(declare-fun x_302 () Int)
(declare-fun x_303 () Int)
(declare-fun x_304 () Int)
(declare-fun x_305 () Int)
(declare-fun x_306 () Int)
(declare-fun x_307 () Int)
(declare-fun x_308 () Int)
(declare-fun x_309 () Int)
(declare-fun x_310 () Int)
(declare-fun x_311 () Int)
(declare-fun x_312 () Int)
(declare-fun x_313 () Int)
(declare-fun x_314 () Int)
(declare-fun x_315 () Int)
(declare-fun x_316 () Int)
(declare-fun x_317 () Int)
(declare-fun x_318 () Int)
(declare-fun x_319 () Int)
(declare-fun x_320 () Int)
(declare-fun x_321 () Int)
(declare-fun x_322 () Int)
(declare-fun x_323 () Int)
(declare-fun x_324 () Int)
(declare-fun x_325 () Int)
(declare-fun x_326 () Int)
(declare-fun x_327 () Int)
(declare-fun x_328 () Int)
(declare-fun x_329 () Int)
(declare-fun x_330 () Int)
(declare-fun x_331 () Int)
(declare-fun x_332 () Int)
(declare-fun x_333 () Int)
(declare-fun x_334 () Int)
(declare-fun x_335 () Int)
(declare-fun x_336 () Int)
(declare-fun x_337 () Int)
(declare-fun x_338 () Int)
(declare-fun x_339 () Int)
(declare-fun x_340 () Int)
(declare-fun x_341 () Int)
(declare-fun x_342 () Int)
(declare-fun x_343 () Int)
(declare-fun x_344 () Int)
(declare-fun x_345 () Int)
(declare-fun x_346 () Int)
(declare-fun x_347 () Int)
(declare-fun x_348 () Int)
(declare-fun x_349 () Int)
(assert (let ((?v_83 (= x_22 x_19)) (?v_80 (= x_23 x_20)) (?v_81 (= x_24 x_25)) (?v_84 (= x_26 x_27)) (?v_82 (not (<= x_27 x_20))) (?v_78 (= x_38 x_22)) (?v_75 (= x_39 x_23)) (?v_76 (= x_40 x_24)) (?v_79 (= x_41 x_26)) (?v_77 (not (<= x_26 x_23))) (?v_73 (= x_51 x_38)) (?v_70 (= x_52 x_39)) (?v_71 (= x_53 x_40)) (?v_74 (= x_54 x_41)) (?v_72 (not (<= x_41 x_39))) (?v_68 (= x_64 x_51)) (?v_65 (= x_65 x_52)) (?v_66 (= x_66 x_53)) (?v_69 (= x_67 x_54)) (?v_67 (not (<= x_54 x_52))) (?v_63 (= x_77 x_64)) (?v_60 (= x_78 x_65)) (?v_61 (= x_79 x_66)) (?v_64 (= x_80 x_67)) (?v_62 (not (<= x_67 x_65))) (?v_58 (= x_90 x_77)) (?v_55 (= x_91 x_78)) (?v_56 (= x_92 x_79)) (?v_59 (= x_93 x_80)) (?v_57 (not (<= x_80 x_78))) (?v_53 (= x_103 x_90)) (?v_50 (= x_104 x_91)) (?v_51 (= x_105 x_92)) (?v_54 (= x_106 x_93)) (?v_52 (not (<= x_93 x_91))) (?v_48 (= x_116 x_103)) (?v_45 (= x_117 x_104)) (?v_46 (= x_118 x_105)) (?v_49 (= x_119 x_106)) (?v_47 (not (<= x_106 x_104))) (?v_43 (= x_129 x_116)) (?v_40 (= x_130 x_117)) (?v_41 (= x_131 x_118)) (?v_44 (= x_132 x_119)) (?v_42 (not (<= x_119 x_117))) (?v_38 (= x_142 x_129)) (?v_35 (= x_143 x_130)) (?v_36 (= x_144 x_131)) (?v_39 (= x_145 x_132)) (?v_37 (not (<= x_132 x_130))) (?v_33 (= x_155 x_142)) (?v_30 (= x_156 x_143)) (?v_31 (= x_157 x_144)) (?v_34 (= x_158 x_145)) (?v_32 (not (<= x_145 x_143))) (?v_28 (= x_168 x_155)) (?v_25 (= x_169 x_156)) (?v_26 (= x_170 x_157)) (?v_29 (= x_171 x_158)) (?v_27 (not (<= x_158 x_156))) (?v_23 (= x_181 x_168)) (?v_20 (= x_182 x_169)) (?v_21 (= x_183 x_170)) (?v_24 (= x_184 x_171)) (?v_22 (not (<= x_171 x_169))) (?v_18 (= x_194 x_181)) (?v_15 (= x_195 x_182)) (?v_16 (= x_196 x_183)) (?v_19 (= x_197 x_184)) (?v_17 (not (<= x_184 x_182))) (?v_13 (= x_207 x_194)) (?v_10 (= x_208 x_195)) (?v_11 (= x_209 x_196)) (?v_14 (= x_210 x_197)) (?v_12 (not (<= x_197 x_195))) (?v_8 (= x_220 x_207)) (?v_5 (= x_221 x_208)) (?v_6 (= x_222 x_209)) (?v_9 (= x_223 x_210)) (?v_7 (not (<= x_210 x_208))) (?v_3 (= x_233 x_220)) (?v_0 (= x_234 x_221)) (?v_1 (= x_235 x_222)) (?v_4 (= x_236 x_223)) (?v_2 (not (<= x_223 x_221)))) (and (and (and (and (and (and (and (and (and (and (and (and (and (and (and (and (and (and (and (and (and (and (and (and (and (and (and (and (and (and (and (and (and (and (and (and (and (and (and (and (and (and (and (and (and (and (and (and (and (and (and (and (and (and (and (and (and (and (and (and (and (and (and (and (and (and (and (and (and (and (and (and (and (and (and (and (and (and (and (and (and (and (and (and (and (and (and (and (and (and (and (and (and (and (and (and (and (and (and (and (and (and (and (and (and (and (and (and (and (and (and (and (and (and (and (and (and (and (and (and (and (and (and (and (and (and (and (and (and (and (and (and (and (and (and (and (and (and (and (and (and (and (and (and (and (and (and (and (and (and (and (and (and (and (and (and (and (and (and (and (and (and (and (and (and (and (and (and (and (and (and (and (and (and (not (= x_2 x_1)) (= x_246 (select x_18 x_1))) (= x_247 (select x_18 x_2))) (or (not (= x_246 3)) (not (= x_247 3)))) (= x_248 (select x_17 x_1))) (= x_249 (select x_17 x_2))) (or (not (= x_248 3)) (not (= x_249 3)))) (= x_250 (select x_16 x_1))) (= x_251 (select x_16 x_2))) (or (not (= x_250 3)) (not (= x_251 3)))) (= x_252 (select x_15 x_1))) (= x_253 (select x_15 x_2))) (or (not (= x_252 3)) (not (= x_253 3)))) (= x_254 (select x_14 x_1))) (= x_255 (select x_14 x_2))) (or (not (= x_254 3)) (not (= x_255 3)))) (= x_256 (select x_13 x_1))) (= x_257 (select x_13 x_2))) (or (not (= x_256 3)) (not (= x_257 3)))) (= x_258 (select x_12 x_1))) (= x_259 (select x_12 x_2))) (or (not (= x_258 3)) (not (= x_259 3)))) (= x_260 (select x_11 x_1))) (= x_261 (select x_11 x_2))) (or (not (= x_260 3)) (not (= x_261 3)))) (= x_262 (select x_10 x_1))) (= x_263 (select x_10 x_2))) (or (not (= x_262 3)) (not (= x_263 3)))) (= x_264 (select x_9 x_1))) (= x_265 (select x_9 x_2))) (or (not (= x_264 3)) (not (= x_265 3)))) (= x_266 (select x_8 x_1))) (= x_267 (select x_8 x_2))) (or (not (= x_266 3)) (not (= x_267 3)))) (= x_268 (select x_7 x_1))) (= x_269 (select x_7 x_2))) (or (not (= x_268 3)) (not (= x_269 3)))) (= x_270 (select x_6 x_1))) (= x_271 (select x_6 x_2))) (or (not (= x_270 3)) (not (= x_271 3)))) (= x_272 (select x_5 x_1))) (= x_273 (select x_5 x_2))) (or (not (= x_272 3)) (not (= x_273 3)))) (= x_274 (select x_4 x_1))) (= x_275 (select x_4 x_2))) (or (not (= x_274 3)) (not (= x_275 3)))) (= x_276 (select x_3 x_1))) (= x_277 (select x_3 x_2))) (or (not (= x_276 3)) (not (= x_277 3)))) (= x_278 (select x_0 x_1))) (= x_279 (select x_0 x_2))) (or (not (= x_278 3)) (not (= x_279 3)))) (= x_280 (select x_19 x_20))) (= x_21 x_280)) (= x_281 (select x_22 x_23))) (= x_37 x_281)) (= x_282 (select x_38 x_39))) (= x_50 x_282)) (= x_283 (select x_51 x_52))) (= x_63 x_283)) (= x_284 (select x_64 x_65))) (= x_76 x_284)) (= x_285 (select x_77 x_78))) (= x_89 x_285)) (= x_286 (select x_90 x_91))) (= x_102 x_286)) (= x_287 (select x_103 x_104))) (= x_115 x_287)) (= x_288 (select x_116 x_117))) (= x_128 x_288)) (= x_289 (select x_129 x_130))) (= x_141 x_289)) (= x_290 (select x_142 x_143))) (= x_154 x_290)) (= x_291 (select x_155 x_156))) (= x_167 x_291)) (= x_292 (select x_168 x_169))) (= x_180 x_292)) (= x_293 (select x_181 x_182))) (= x_193 x_293)) (= x_294 (select x_194 x_195))) (= x_206 x_294)) (= x_295 (select x_207 x_208))) (= x_219 x_295)) (= x_296 (select x_220 x_221))) (= x_232 x_296)) (= x_237 (+ x_224 1))) (= x_297 (select x_18 x_239))) (= x_298 (select x_18 x_242))) (= x_299 (select x_18 x_244))) (or (or (or (and (and (and (and (and (and (and (= x_238 0) (= x_236 (+ x_223 1))) ?v_0) ?v_1) (= x_240 x_239)) (= x_297 1)) (= x_241 (store x_18 x_239 2))) (= x_233 (store x_220 x_223 x_239))) (and (and (and (and (and (and (and (and (and (= x_238 1) ?v_2) ?v_0) ?v_1) ?v_3) ?v_4) (= x_243 x_242)) (= x_298 2)) (= x_232 x_242)) (= x_241 (store x_18 x_242 3)))) (and (and (and (and (and (and (and (and (and (= x_238 2) ?v_2) (= x_234 (+ x_221 1))) ?v_1) ?v_3) ?v_4) (= x_245 x_244)) (= x_299 3)) (or (not (<= x_224 12)) (= x_232 x_244))) (= x_241 (store x_18 x_244 1)))) (and (and (and (and (and (= x_238 3) ?v_3) ?v_0) ?v_1) (= x_241 x_18)) ?v_4))) (= x_224 (+ x_211 1))) (= x_300 (select x_17 x_226))) (= x_301 (select x_17 x_228))) (= x_302 (select x_17 x_230))) (or (or (or (and (and (and (and (and (and (and (= x_225 0) (= x_223 (+ x_210 1))) ?v_5) ?v_6) (= x_227 x_226)) (= x_300 1)) (= x_18 (store x_17 x_226 2))) (= x_220 (store x_207 x_210 x_226))) (and (and (and (and (and (and (and (and (and (= x_225 1) ?v_7) ?v_5) ?v_6) ?v_8) ?v_9) (= x_229 x_228)) (= x_301 2)) (= x_219 x_228)) (= x_18 (store x_17 x_228 3)))) (and (and (and (and (and (and (and (and (and (= x_225 2) ?v_7) (= x_221 (+ x_208 1))) ?v_6) ?v_8) ?v_9) (= x_231 x_230)) (= x_302 3)) (or (not (<= x_211 12)) (= x_219 x_230))) (= x_18 (store x_17 x_230 1)))) (and (and (and (and (and (= x_225 3) ?v_8) ?v_5) ?v_6) (= x_18 x_17)) ?v_9))) (= x_211 (+ x_198 1))) (= x_303 (select x_16 x_213))) (= x_304 (select x_16 x_215))) (= x_305 (select x_16 x_217))) (or (or (or (and (and (and (and (and (and (and (= x_212 0) (= x_210 (+ x_197 1))) ?v_10) ?v_11) (= x_214 x_213)) (= x_303 1)) (= x_17 (store x_16 x_213 2))) (= x_207 (store x_194 x_197 x_213))) (and (and (and (and (and (and (and (and (and (= x_212 1) ?v_12) ?v_10) ?v_11) ?v_13) ?v_14) (= x_216 x_215)) (= x_304 2)) (= x_206 x_215)) (= x_17 (store x_16 x_215 3)))) (and (and (and (and (and (and (and (and (and (= x_212 2) ?v_12) (= x_208 (+ x_195 1))) ?v_11) ?v_13) ?v_14) (= x_218 x_217)) (= x_305 3)) (or (not (<= x_198 12)) (= x_206 x_217))) (= x_17 (store x_16 x_217 1)))) (and (and (and (and (and (= x_212 3) ?v_13) ?v_10) ?v_11) (= x_17 x_16)) ?v_14))) (= x_198 (+ x_185 1))) (= x_306 (select x_15 x_200))) (= x_307 (select x_15 x_202))) (= x_308 (select x_15 x_204))) (or (or (or (and (and (and (and (and (and (and (= x_199 0) (= x_197 (+ x_184 1))) ?v_15) ?v_16) (= x_201 x_200)) (= x_306 1)) (= x_16 (store x_15 x_200 2))) (= x_194 (store x_181 x_184 x_200))) (and (and (and (and (and (and (and (and (and (= x_199 1) ?v_17) ?v_15) ?v_16) ?v_18) ?v_19) (= x_203 x_202)) (= x_307 2)) (= x_193 x_202)) (= x_16 (store x_15 x_202 3)))) (and (and (and (and (and (and (and (and (and (= x_199 2) ?v_17) (= x_195 (+ x_182 1))) ?v_16) ?v_18) ?v_19) (= x_205 x_204)) (= x_308 3)) (or (not (<= x_185 12)) (= x_193 x_204))) (= x_16 (store x_15 x_204 1)))) (and (and (and (and (and (= x_199 3) ?v_18) ?v_15) ?v_16) (= x_16 x_15)) ?v_19))) (= x_185 (+ x_172 1))) (= x_309 (select x_14 x_187))) (= x_310 (select x_14 x_189))) (= x_311 (select x_14 x_191))) (or (or (or (and (and (and (and (and (and (and (= x_186 0) (= x_184 (+ x_171 1))) ?v_20) ?v_21) (= x_188 x_187)) (= x_309 1)) (= x_15 (store x_14 x_187 2))) (= x_181 (store x_168 x_171 x_187))) (and (and (and (and (and (and (and (and (and (= x_186 1) ?v_22) ?v_20) ?v_21) ?v_23) ?v_24) (= x_190 x_189)) (= x_310 2)) (= x_180 x_189)) (= x_15 (store x_14 x_189 3)))) (and (and (and (and (and (and (and (and (and (= x_186 2) ?v_22) (= x_182 (+ x_169 1))) ?v_21) ?v_23) ?v_24) (= x_192 x_191)) (= x_311 3)) (or (not (<= x_172 12)) (= x_180 x_191))) (= x_15 (store x_14 x_191 1)))) (and (and (and (and (and (= x_186 3) ?v_23) ?v_20) ?v_21) (= x_15 x_14)) ?v_24))) (= x_172 (+ x_159 1))) (= x_312 (select x_13 x_174))) (= x_313 (select x_13 x_176))) (= x_314 (select x_13 x_178))) (or (or (or (and (and (and (and (and (and (and (= x_173 0) (= x_171 (+ x_158 1))) ?v_25) ?v_26) (= x_175 x_174)) (= x_312 1)) (= x_14 (store x_13 x_174 2))) (= x_168 (store x_155 x_158 x_174))) (and (and (and (and (and (and (and (and (and (= x_173 1) ?v_27) ?v_25) ?v_26) ?v_28) ?v_29) (= x_177 x_176)) (= x_313 2)) (= x_167 x_176)) (= x_14 (store x_13 x_176 3)))) (and (and (and (and (and (and (and (and (and (= x_173 2) ?v_27) (= x_169 (+ x_156 1))) ?v_26) ?v_28) ?v_29) (= x_179 x_178)) (= x_314 3)) (or (not (<= x_159 12)) (= x_167 x_178))) (= x_14 (store x_13 x_178 1)))) (and (and (and (and (and (= x_173 3) ?v_28) ?v_25) ?v_26) (= x_14 x_13)) ?v_29))) (= x_159 (+ x_146 1))) (= x_315 (select x_12 x_161))) (= x_316 (select x_12 x_163))) (= x_317 (select x_12 x_165))) (or (or (or (and (and (and (and (and (and (and (= x_160 0) (= x_158 (+ x_145 1))) ?v_30) ?v_31) (= x_162 x_161)) (= x_315 1)) (= x_13 (store x_12 x_161 2))) (= x_155 (store x_142 x_145 x_161))) (and (and (and (and (and (and (and (and (and (= x_160 1) ?v_32) ?v_30) ?v_31) ?v_33) ?v_34) (= x_164 x_163)) (= x_316 2)) (= x_154 x_163)) (= x_13 (store x_12 x_163 3)))) (and (and (and (and (and (and (and (and (and (= x_160 2) ?v_32) (= x_156 (+ x_143 1))) ?v_31) ?v_33) ?v_34) (= x_166 x_165)) (= x_317 3)) (or (not (<= x_146 12)) (= x_154 x_165))) (= x_13 (store x_12 x_165 1)))) (and (and (and (and (and (= x_160 3) ?v_33) ?v_30) ?v_31) (= x_13 x_12)) ?v_34))) (= x_146 (+ x_133 1))) (= x_318 (select x_11 x_148))) (= x_319 (select x_11 x_150))) (= x_320 (select x_11 x_152))) (or (or (or (and (and (and (and (and (and (and (= x_147 0) (= x_145 (+ x_132 1))) ?v_35) ?v_36) (= x_149 x_148)) (= x_318 1)) (= x_12 (store x_11 x_148 2))) (= x_142 (store x_129 x_132 x_148))) (and (and (and (and (and (and (and (and (and (= x_147 1) ?v_37) ?v_35) ?v_36) ?v_38) ?v_39) (= x_151 x_150)) (= x_319 2)) (= x_141 x_150)) (= x_12 (store x_11 x_150 3)))) (and (and (and (and (and (and (and (and (and (= x_147 2) ?v_37) (= x_143 (+ x_130 1))) ?v_36) ?v_38) ?v_39) (= x_153 x_152)) (= x_320 3)) (or (not (<= x_133 12)) (= x_141 x_152))) (= x_12 (store x_11 x_152 1)))) (and (and (and (and (and (= x_147 3) ?v_38) ?v_35) ?v_36) (= x_12 x_11)) ?v_39))) (= x_133 (+ x_120 1))) (= x_321 (select x_10 x_135))) (= x_322 (select x_10 x_137))) (= x_323 (select x_10 x_139))) (or (or (or (and (and (and (and (and (and (and (= x_134 0) (= x_132 (+ x_119 1))) ?v_40) ?v_41) (= x_136 x_135)) (= x_321 1)) (= x_11 (store x_10 x_135 2))) (= x_129 (store x_116 x_119 x_135))) (and (and (and (and (and (and (and (and (and (= x_134 1) ?v_42) ?v_40) ?v_41) ?v_43) ?v_44) (= x_138 x_137)) (= x_322 2)) (= x_128 x_137)) (= x_11 (store x_10 x_137 3)))) (and (and (and (and (and (and (and (and (and (= x_134 2) ?v_42) (= x_130 (+ x_117 1))) ?v_41) ?v_43) ?v_44) (= x_140 x_139)) (= x_323 3)) (or (not (<= x_120 12)) (= x_128 x_139))) (= x_11 (store x_10 x_139 1)))) (and (and (and (and (and (= x_134 3) ?v_43) ?v_40) ?v_41) (= x_11 x_10)) ?v_44))) (= x_120 (+ x_107 1))) (= x_324 (select x_9 x_122))) (= x_325 (select x_9 x_124))) (= x_326 (select x_9 x_126))) (or (or (or (and (and (and (and (and (and (and (= x_121 0) (= x_119 (+ x_106 1))) ?v_45) ?v_46) (= x_123 x_122)) (= x_324 1)) (= x_10 (store x_9 x_122 2))) (= x_116 (store x_103 x_106 x_122))) (and (and (and (and (and (and (and (and (and (= x_121 1) ?v_47) ?v_45) ?v_46) ?v_48) ?v_49) (= x_125 x_124)) (= x_325 2)) (= x_115 x_124)) (= x_10 (store x_9 x_124 3)))) (and (and (and (and (and (and (and (and (and (= x_121 2) ?v_47) (= x_117 (+ x_104 1))) ?v_46) ?v_48) ?v_49) (= x_127 x_126)) (= x_326 3)) (or (not (<= x_107 12)) (= x_115 x_126))) (= x_10 (store x_9 x_126 1)))) (and (and (and (and (and (= x_121 3) ?v_48) ?v_45) ?v_46) (= x_10 x_9)) ?v_49))) (= x_107 (+ x_94 1))) (= x_327 (select x_8 x_109))) (= x_328 (select x_8 x_111))) (= x_329 (select x_8 x_113))) (or (or (or (and (and (and (and (and (and (and (= x_108 0) (= x_106 (+ x_93 1))) ?v_50) ?v_51) (= x_110 x_109)) (= x_327 1)) (= x_9 (store x_8 x_109 2))) (= x_103 (store x_90 x_93 x_109))) (and (and (and (and (and (and (and (and (and (= x_108 1) ?v_52) ?v_50) ?v_51) ?v_53) ?v_54) (= x_112 x_111)) (= x_328 2)) (= x_102 x_111)) (= x_9 (store x_8 x_111 3)))) (and (and (and (and (and (and (and (and (and (= x_108 2) ?v_52) (= x_104 (+ x_91 1))) ?v_51) ?v_53) ?v_54) (= x_114 x_113)) (= x_329 3)) (or (not (<= x_94 12)) (= x_102 x_113))) (= x_9 (store x_8 x_113 1)))) (and (and (and (and (and (= x_108 3) ?v_53) ?v_50) ?v_51) (= x_9 x_8)) ?v_54))) (= x_94 (+ x_81 1))) (= x_330 (select x_7 x_96))) (= x_331 (select x_7 x_98))) (= x_332 (select x_7 x_100))) (or (or (or (and (and (and (and (and (and (and (= x_95 0) (= x_93 (+ x_80 1))) ?v_55) ?v_56) (= x_97 x_96)) (= x_330 1)) (= x_8 (store x_7 x_96 2))) (= x_90 (store x_77 x_80 x_96))) (and (and (and (and (and (and (and (and (and (= x_95 1) ?v_57) ?v_55) ?v_56) ?v_58) ?v_59) (= x_99 x_98)) (= x_331 2)) (= x_89 x_98)) (= x_8 (store x_7 x_98 3)))) (and (and (and (and (and (and (and (and (and (= x_95 2) ?v_57) (= x_91 (+ x_78 1))) ?v_56) ?v_58) ?v_59) (= x_101 x_100)) (= x_332 3)) (or (not (<= x_81 12)) (= x_89 x_100))) (= x_8 (store x_7 x_100 1)))) (and (and (and (and (and (= x_95 3) ?v_58) ?v_55) ?v_56) (= x_8 x_7)) ?v_59))) (= x_81 (+ x_68 1))) (= x_333 (select x_6 x_83))) (= x_334 (select x_6 x_85))) (= x_335 (select x_6 x_87))) (or (or (or (and (and (and (and (and (and (and (= x_82 0) (= x_80 (+ x_67 1))) ?v_60) ?v_61) (= x_84 x_83)) (= x_333 1)) (= x_7 (store x_6 x_83 2))) (= x_77 (store x_64 x_67 x_83))) (and (and (and (and (and (and (and (and (and (= x_82 1) ?v_62) ?v_60) ?v_61) ?v_63) ?v_64) (= x_86 x_85)) (= x_334 2)) (= x_76 x_85)) (= x_7 (store x_6 x_85 3)))) (and (and (and (and (and (and (and (and (and (= x_82 2) ?v_62) (= x_78 (+ x_65 1))) ?v_61) ?v_63) ?v_64) (= x_88 x_87)) (= x_335 3)) (or (not (<= x_68 12)) (= x_76 x_87))) (= x_7 (store x_6 x_87 1)))) (and (and (and (and (and (= x_82 3) ?v_63) ?v_60) ?v_61) (= x_7 x_6)) ?v_64))) (= x_68 (+ x_55 1))) (= x_336 (select x_5 x_70))) (= x_337 (select x_5 x_72))) (= x_338 (select x_5 x_74))) (or (or (or (and (and (and (and (and (and (and (= x_69 0) (= x_67 (+ x_54 1))) ?v_65) ?v_66) (= x_71 x_70)) (= x_336 1)) (= x_6 (store x_5 x_70 2))) (= x_64 (store x_51 x_54 x_70))) (and (and (and (and (and (and (and (and (and (= x_69 1) ?v_67) ?v_65) ?v_66) ?v_68) ?v_69) (= x_73 x_72)) (= x_337 2)) (= x_63 x_72)) (= x_6 (store x_5 x_72 3)))) (and (and (and (and (and (and (and (and (and (= x_69 2) ?v_67) (= x_65 (+ x_52 1))) ?v_66) ?v_68) ?v_69) (= x_75 x_74)) (= x_338 3)) (or (not (<= x_55 12)) (= x_63 x_74))) (= x_6 (store x_5 x_74 1)))) (and (and (and (and (and (= x_69 3) ?v_68) ?v_65) ?v_66) (= x_6 x_5)) ?v_69))) (= x_55 (+ x_42 1))) (= x_339 (select x_4 x_57))) (= x_340 (select x_4 x_59))) (= x_341 (select x_4 x_61))) (or (or (or (and (and (and (and (and (and (and (= x_56 0) (= x_54 (+ x_41 1))) ?v_70) ?v_71) (= x_58 x_57)) (= x_339 1)) (= x_5 (store x_4 x_57 2))) (= x_51 (store x_38 x_41 x_57))) (and (and (and (and (and (and (and (and (and (= x_56 1) ?v_72) ?v_70) ?v_71) ?v_73) ?v_74) (= x_60 x_59)) (= x_340 2)) (= x_50 x_59)) (= x_5 (store x_4 x_59 3)))) (and (and (and (and (and (and (and (and (and (= x_56 2) ?v_72) (= x_52 (+ x_39 1))) ?v_71) ?v_73) ?v_74) (= x_62 x_61)) (= x_341 3)) (or (not (<= x_42 12)) (= x_50 x_61))) (= x_5 (store x_4 x_61 1)))) (and (and (and (and (and (= x_56 3) ?v_73) ?v_70) ?v_71) (= x_5 x_4)) ?v_74))) (= x_42 (+ x_28 1))) (= x_342 (select x_3 x_44))) (= x_343 (select x_3 x_46))) (= x_344 (select x_3 x_48))) (or (or (or (and (and (and (and (and (and (and (= x_43 0) (= x_41 (+ x_26 1))) ?v_75) ?v_76) (= x_45 x_44)) (= x_342 1)) (= x_4 (store x_3 x_44 2))) (= x_38 (store x_22 x_26 x_44))) (and (and (and (and (and (and (and (and (and (= x_43 1) ?v_77) ?v_75) ?v_76) ?v_78) ?v_79) (= x_47 x_46)) (= x_343 2)) (= x_37 x_46)) (= x_4 (store x_3 x_46 3)))) (and (and (and (and (and (and (and (and (and (= x_43 2) ?v_77) (= x_39 (+ x_23 1))) ?v_76) ?v_78) ?v_79) (= x_49 x_48)) (= x_344 3)) (or (not (<= x_28 12)) (= x_37 x_48))) (= x_4 (store x_3 x_48 1)))) (and (and (and (and (and (= x_43 3) ?v_78) ?v_75) ?v_76) (= x_4 x_3)) ?v_79))) (= x_28 (+ x_29 1))) (= x_345 (select x_0 x_31))) (= x_346 (select x_0 x_33))) (= x_347 (select x_0 x_35))) (or (or (or (and (and (and (and (and (and (and (= x_30 0) (= x_26 (+ x_27 1))) ?v_80) ?v_81) (= x_32 x_31)) (= x_345 1)) (= x_3 (store x_0 x_31 2))) (= x_22 (store x_19 x_27 x_31))) (and (and (and (and (and (and (and (and (and (= x_30 1) ?v_82) ?v_80) ?v_81) ?v_83) ?v_84) (= x_34 x_33)) (= x_346 2)) (= x_21 x_33)) (= x_3 (store x_0 x_33 3)))) (and (and (and (and (and (and (and (and (and (= x_30 2) ?v_82) (= x_23 (+ x_20 1))) ?v_81) ?v_83) ?v_84) (= x_36 x_35)) (= x_347 3)) (or (not (<= x_29 12)) (= x_21 x_35))) (= x_3 (store x_0 x_35 1)))) (and (and (and (and (and (= x_30 3) ?v_83) ?v_80) ?v_81) (= x_3 x_0)) ?v_84))) (= x_348 (select x_241 x_1))) (= x_348 3)) (= x_349 (select x_241 x_2))) (= x_349 3))))
; --- Injected Array Sum Constraint ---
(assert (sum x_10 (+ x_81 (+ x_126 x_317))))
(assert (sum x_233 (+ x_113 (+ x_76 x_2))))
(assert (sum x_15 (+ x_82 (+ x_143 x_313))))
(assert (sum x_155 (+ x_271 (+ x_70 x_210))))
(assert (sum x_19 (+ x_255 (+ x_323 x_324))))
(assert (sum x_9 (+ x_290 (+ x_81 x_333))))
(assert (sum x_15 (+ x_270 (+ x_305 x_240))))
(assert (sum x_77 (+ x_67 (+ x_203 x_35))))
(assert (sum x_51 (+ x_95 (+ x_29 x_171))))
(assert (sum x_17 (+ x_178 (+ x_93 x_182))))
(check-sat)
(exit)